Input/IP/Random/Random_025_04_3.lp
min: z;
+y0 +y1 +y2 +y3 +y4 +y5 +y6 +y7 +y8 +y9 +y10 +y11 +y12 +y13 +y14 +y15 +y16 +y17 +y18 +y19 +y20 +y21 +y22 +y23 +y24 = 3;
+x0.0 +x0.1 +x0.2 +x0.3 +x0.4 +x0.5 +x0.6 +x0.7 +x0.8 +x0.9 +x0.10 +x0.11 +x0.12 +x0.13 +x0.14 +x0.15 +x0.16 +x0.17 +x0.18 +x0.19 +x0.20 +x0.21 +x0.22 +x0.23 +x0.24 = 1;
+x1.0 +x1.1 +x1.2 +x1.3 +x1.4 +x1.5 +x1.6 +x1.7 +x1.8 +x1.9 +x1.10 +x1.11 +x1.12 +x1.13 +x1.14 +x1.15 +x1.16 +x1.17 +x1.18 +x1.19 +x1.20 +x1.21 +x1.22 +x1.23 +x1.24 = 1;
+x2.0 +x2.1 +x2.2 +x2.3 +x2.4 +x2.5 +x2.6 +x2.7 +x2.8 +x2.9 +x2.10 +x2.11 +x2.12 +x2.13 +x2.14 +x2.15 +x2.16 +x2.17 +x2.18 +x2.19 +x2.20 +x2.21 +x2.22 +x2.23 +x2.24 = 1;
+x3.0 +x3.1 +x3.2 +x3.3 +x3.4 +x3.5 +x3.6 +x3.7 +x3.8 +x3.9 +x3.10 +x3.11 +x3.12 +x3.13 +x3.14 +x3.15 +x3.16 +x3.17 +x3.18 +x3.19 +x3.20 +x3.21 +x3.22 +x3.23 +x3.24 = 1;
+x4.0 +x4.1 +x4.2 +x4.3 +x4.4 +x4.5 +x4.6 +x4.7 +x4.8 +x4.9 +x4.10 +x4.11 +x4.12 +x4.13 +x4.14 +x4.15 +x4.16 +x4.17 +x4.18 +x4.19 +x4.20 +x4.21 +x4.22 +x4.23 +x4.24 = 1;
+x5.0 +x5.1 +x5.2 +x5.3 +x5.4 +x5.5 +x5.6 +x5.7 +x5.8 +x5.9 +x5.10 +x5.11 +x5.12 +x5.13 +x5.14 +x5.15 +x5.16 +x5.17 +x5.18 +x5.19 +x5.20 +x5.21 +x5.22 +x5.23 +x5.24 = 1;
+x6.0 +x6.1 +x6.2 +x6.3 +x6.4 +x6.5 +x6.6 +x6.7 +x6.8 +x6.9 +x6.10 +x6.11 +x6.12 +x6.13 +x6.14 +x6.15 +x6.16 +x6.17 +x6.18 +x6.19 +x6.20 +x6.21 +x6.22 +x6.23 +x6.24 = 1;
+x7.0 +x7.1 +x7.2 +x7.3 +x7.4 +x7.5 +x7.6 +x7.7 +x7.8 +x7.9 +x7.10 +x7.11 +x7.12 +x7.13 +x7.14 +x7.15 +x7.16 +x7.17 +x7.18 +x7.19 +x7.20 +x7.21 +x7.22 +x7.23 +x7.24 = 1;
+x8.0 +x8.1 +x8.2 +x8.3 +x8.4 +x8.5 +x8.6 +x8.7 +x8.8 +x8.9 +x8.10 +x8.11 +x8.12 +x8.13 +x8.14 +x8.15 +x8.16 +x8.17 +x8.18 +x8.19 +x8.20 +x8.21 +x8.22 +x8.23 +x8.24 = 1;
+x9.0 +x9.1 +x9.2 +x9.3 +x9.4 +x9.5 +x9.6 +x9.7 +x9.8 +x9.9 +x9.10 +x9.11 +x9.12 +x9.13 +x9.14 +x9.15 +x9.16 +x9.17 +x9.18 +x9.19 +x9.20 +x9.21 +x9.22 +x9.23 +x9.24 = 1;
+x10.0 +x10.1 +x10.2 +x10.3 +x10.4 +x10.5 +x10.6 +x10.7 +x10.8 +x10.9 +x10.10 +x10.11 +x10.12 +x10.13 +x10.14 +x10.15 +x10.16 +x10.17 +x10.18 +x10.19 +x10.20 +x10.21 +x10.22 +x10.23 +x10.24 = 1;
+x11.0 +x11.1 +x11.2 +x11.3 +x11.4 +x11.5 +x11.6 +x11.7 +x11.8 +x11.9 +x11.10 +x11.11 +x11.12 +x11.13 +x11.14 +x11.15 +x11.16 +x11.17 +x11.18 +x11.19 +x11.20 +x11.21 +x11.22 +x11.23 +x11.24 = 1;
+x12.0 +x12.1 +x12.2 +x12.3 +x12.4 +x12.5 +x12.6 +x12.7 +x12.8 +x12.9 +x12.10 +x12.11 +x12.12 +x12.13 +x12.14 +x12.15 +x12.16 +x12.17 +x12.18 +x12.19 +x12.20 +x12.21 +x12.22 +x12.23 +x12.24 = 1;
+x13.0 +x13.1 +x13.2 +x13.3 +x13.4 +x13.5 +x13.6 +x13.7 +x13.8 +x13.9 +x13.10 +x13.11 +x13.12 +x13.13 +x13.14 +x13.15 +x13.16 +x13.17 +x13.18 +x13.19 +x13.20 +x13.21 +x13.22 +x13.23 +x13.24 = 1;
+x14.0 +x14.1 +x14.2 +x14.3 +x14.4 +x14.5 +x14.6 +x14.7 +x14.8 +x14.9 +x14.10 +x14.11 +x14.12 +x14.13 +x14.14 +x14.15 +x14.16 +x14.17 +x14.18 +x14.19 +x14.20 +x14.21 +x14.22 +x14.23 +x14.24 = 1;
+x15.0 +x15.1 +x15.2 +x15.3 +x15.4 +x15.5 +x15.6 +x15.7 +x15.8 +x15.9 +x15.10 +x15.11 +x15.12 +x15.13 +x15.14 +x15.15 +x15.16 +x15.17 +x15.18 +x15.19 +x15.20 +x15.21 +x15.22 +x15.23 +x15.24 = 1;
+x16.0 +x16.1 +x16.2 +x16.3 +x16.4 +x16.5 +x16.6 +x16.7 +x16.8 +x16.9 +x16.10 +x16.11 +x16.12 +x16.13 +x16.14 +x16.15 +x16.16 +x16.17 +x16.18 +x16.19 +x16.20 +x16.21 +x16.22 +x16.23 +x16.24 = 1;
+x17.0 +x17.1 +x17.2 +x17.3 +x17.4 +x17.5 +x17.6 +x17.7 +x17.8 +x17.9 +x17.10 +x17.11 +x17.12 +x17.13 +x17.14 +x17.15 +x17.16 +x17.17 +x17.18 +x17.19 +x17.20 +x17.21 +x17.22 +x17.23 +x17.24 = 1;
+x18.0 +x18.1 +x18.2 +x18.3 +x18.4 +x18.5 +x18.6 +x18.7 +x18.8 +x18.9 +x18.10 +x18.11 +x18.12 +x18.13 +x18.14 +x18.15 +x18.16 +x18.17 +x18.18 +x18.19 +x18.20 +x18.21 +x18.22 +x18.23 +x18.24 = 1;
+x19.0 +x19.1 +x19.2 +x19.3 +x19.4 +x19.5 +x19.6 +x19.7 +x19.8 +x19.9 +x19.10 +x19.11 +x19.12 +x19.13 +x19.14 +x19.15 +x19.16 +x19.17 +x19.18 +x19.19 +x19.20 +x19.21 +x19.22 +x19.23 +x19.24 = 1;
+x20.0 +x20.1 +x20.2 +x20.3 +x20.4 +x20.5 +x20.6 +x20.7 +x20.8 +x20.9 +x20.10 +x20.11 +x20.12 +x20.13 +x20.14 +x20.15 +x20.16 +x20.17 +x20.18 +x20.19 +x20.20 +x20.21 +x20.22 +x20.23 +x20.24 = 1;
+x21.0 +x21.1 +x21.2 +x21.3 +x21.4 +x21.5 +x21.6 +x21.7 +x21.8 +x21.9 +x21.10 +x21.11 +x21.12 +x21.13 +x21.14 +x21.15 +x21.16 +x21.17 +x21.18 +x21.19 +x21.20 +x21.21 +x21.22 +x21.23 +x21.24 = 1;
+x22.0 +x22.1 +x22.2 +x22.3 +x22.4 +x22.5 +x22.6 +x22.7 +x22.8 +x22.9 +x22.10 +x22.11 +x22.12 +x22.13 +x22.14 +x22.15 +x22.16 +x22.17 +x22.18 +x22.19 +x22.20 +x22.21 +x22.22 +x22.23 +x22.24 = 1;
+x23.0 +x23.1 +x23.2 +x23.3 +x23.4 +x23.5 +x23.6 +x23.7 +x23.8 +x23.9 +x23.10 +x23.11 +x23.12 +x23.13 +x23.14 +x23.15 +x23.16 +x23.17 +x23.18 +x23.19 +x23.20 +x23.21 +x23.22 +x23.23 +x23.24 = 1;
+x24.0 +x24.1 +x24.2 +x24.3 +x24.4 +x24.5 +x24.6 +x24.7 +x24.8 +x24.9 +x24.10 +x24.11 +x24.12 +x24.13 +x24.14 +x24.15 +x24.16 +x24.17 +x24.18 +x24.19 +x24.20 +x24.21 +x24.22 +x24.23 +x24.24 = 1;
x0.0 <= y0;
x0.1 <= y1;
x0.2 <= y2;
x0.3 <= y3;
x0.4 <= y4;
x0.5 <= y5;
x0.6 <= y6;
x0.7 <= y7;
x0.8 <= y8;
x0.9 <= y9;
x0.10 <= y10;
x0.11 <= y11;
x0.12 <= y12;
x0.13 <= y13;
x0.14 <= y14;
x0.15 <= y15;
x0.16 <= y16;
x0.17 <= y17;
x0.18 <= y18;
x0.19 <= y19;
x0.20 <= y20;
x0.21 <= y21;
x0.22 <= y22;
x0.23 <= y23;
x0.24 <= y24;
x1.0 <= y0;
x1.1 <= y1;
x1.2 <= y2;
x1.3 <= y3;
x1.4 <= y4;
x1.5 <= y5;
x1.6 <= y6;
x1.7 <= y7;
x1.8 <= y8;
x1.9 <= y9;
x1.10 <= y10;
x1.11 <= y11;
x1.12 <= y12;
x1.13 <= y13;
x1.14 <= y14;
x1.15 <= y15;
x1.16 <= y16;
x1.17 <= y17;
x1.18 <= y18;
x1.19 <= y19;
x1.20 <= y20;
x1.21 <= y21;
x1.22 <= y22;
x1.23 <= y23;
x1.24 <= y24;
x2.0 <= y0;
x2.1 <= y1;
x2.2 <= y2;
x2.3 <= y3;
x2.4 <= y4;
x2.5 <= y5;
x2.6 <= y6;
x2.7 <= y7;
x2.8 <= y8;
x2.9 <= y9;
x2.10 <= y10;
x2.11 <= y11;
x2.12 <= y12;
x2.13 <= y13;
x2.14 <= y14;
x2.15 <= y15;
x2.16 <= y16;
x2.17 <= y17;
x2.18 <= y18;
x2.19 <= y19;
x2.20 <= y20;
x2.21 <= y21;
x2.22 <= y22;
x2.23 <= y23;
x2.24 <= y24;
x3.0 <= y0;
x3.1 <= y1;
x3.2 <= y2;
x3.3 <= y3;
x3.4 <= y4;
x3.5 <= y5;
x3.6 <= y6;
x3.7 <= y7;
x3.8 <= y8;
x3.9 <= y9;
x3.10 <= y10;
x3.11 <= y11;
x3.12 <= y12;
x3.13 <= y13;
x3.14 <= y14;
x3.15 <= y15;
x3.16 <= y16;
x3.17 <= y17;
x3.18 <= y18;
x3.19 <= y19;
x3.20 <= y20;
x3.21 <= y21;
x3.22 <= y22;
x3.23 <= y23;
x3.24 <= y24;
x4.0 <= y0;
x4.1 <= y1;
x4.2 <= y2;
x4.3 <= y3;
x4.4 <= y4;
x4.5 <= y5;
x4.6 <= y6;
x4.7 <= y7;
x4.8 <= y8;
x4.9 <= y9;
x4.10 <= y10;
x4.11 <= y11;
x4.12 <= y12;
x4.13 <= y13;
x4.14 <= y14;
x4.15 <= y15;
x4.16 <= y16;
x4.17 <= y17;
x4.18 <= y18;
x4.19 <= y19;
x4.20 <= y20;
x4.21 <= y21;
x4.22 <= y22;
x4.23 <= y23;
x4.24 <= y24;
x5.0 <= y0;
x5.1 <= y1;
x5.2 <= y2;
x5.3 <= y3;
x5.4 <= y4;
x5.5 <= y5;
x5.6 <= y6;
x5.7 <= y7;
x5.8 <= y8;
x5.9 <= y9;
x5.10 <= y10;
x5.11 <= y11;
x5.12 <= y12;
x5.13 <= y13;
x5.14 <= y14;
x5.15 <= y15;
x5.16 <= y16;
x5.17 <= y17;
x5.18 <= y18;
x5.19 <= y19;
x5.20 <= y20;
x5.21 <= y21;
x5.22 <= y22;
x5.23 <= y23;
x5.24 <= y24;
x6.0 <= y0;
x6.1 <= y1;
x6.2 <= y2;
x6.3 <= y3;
x6.4 <= y4;
x6.5 <= y5;
x6.6 <= y6;
x6.7 <= y7;
x6.8 <= y8;
x6.9 <= y9;
x6.10 <= y10;
x6.11 <= y11;
x6.12 <= y12;
x6.13 <= y13;
x6.14 <= y14;
x6.15 <= y15;
x6.16 <= y16;
x6.17 <= y17;
x6.18 <= y18;
x6.19 <= y19;
x6.20 <= y20;
x6.21 <= y21;
x6.22 <= y22;
x6.23 <= y23;
x6.24 <= y24;
x7.0 <= y0;
x7.1 <= y1;
x7.2 <= y2;
x7.3 <= y3;
x7.4 <= y4;
x7.5 <= y5;
x7.6 <= y6;
x7.7 <= y7;
x7.8 <= y8;
x7.9 <= y9;
x7.10 <= y10;
x7.11 <= y11;
x7.12 <= y12;
x7.13 <= y13;
x7.14 <= y14;
x7.15 <= y15;
x7.16 <= y16;
x7.17 <= y17;
x7.18 <= y18;
x7.19 <= y19;
x7.20 <= y20;
x7.21 <= y21;
x7.22 <= y22;
x7.23 <= y23;
x7.24 <= y24;
x8.0 <= y0;
x8.1 <= y1;
x8.2 <= y2;
x8.3 <= y3;
x8.4 <= y4;
x8.5 <= y5;
x8.6 <= y6;
x8.7 <= y7;
x8.8 <= y8;
x8.9 <= y9;
x8.10 <= y10;
x8.11 <= y11;
x8.12 <= y12;
x8.13 <= y13;
x8.14 <= y14;
x8.15 <= y15;
x8.16 <= y16;
x8.17 <= y17;
x8.18 <= y18;
x8.19 <= y19;
x8.20 <= y20;
x8.21 <= y21;
x8.22 <= y22;
x8.23 <= y23;
x8.24 <= y24;
x9.0 <= y0;
x9.1 <= y1;
x9.2 <= y2;
x9.3 <= y3;
x9.4 <= y4;
x9.5 <= y5;
x9.6 <= y6;
x9.7 <= y7;
x9.8 <= y8;
x9.9 <= y9;
x9.10 <= y10;
x9.11 <= y11;
x9.12 <= y12;
x9.13 <= y13;
x9.14 <= y14;
x9.15 <= y15;
x9.16 <= y16;
x9.17 <= y17;
x9.18 <= y18;
x9.19 <= y19;
x9.20 <= y20;
x9.21 <= y21;
x9.22 <= y22;
x9.23 <= y23;
x9.24 <= y24;
x10.0 <= y0;
x10.1 <= y1;
x10.2 <= y2;
x10.3 <= y3;
x10.4 <= y4;
x10.5 <= y5;
x10.6 <= y6;
x10.7 <= y7;
x10.8 <= y8;
x10.9 <= y9;
x10.10 <= y10;
x10.11 <= y11;
x10.12 <= y12;
x10.13 <= y13;
x10.14 <= y14;
x10.15 <= y15;
x10.16 <= y16;
x10.17 <= y17;
x10.18 <= y18;
x10.19 <= y19;
x10.20 <= y20;
x10.21 <= y21;
x10.22 <= y22;
x10.23 <= y23;
x10.24 <= y24;
x11.0 <= y0;
x11.1 <= y1;
x11.2 <= y2;
x11.3 <= y3;
x11.4 <= y4;
x11.5 <= y5;
x11.6 <= y6;
x11.7 <= y7;
x11.8 <= y8;
x11.9 <= y9;
x11.10 <= y10;
x11.11 <= y11;
x11.12 <= y12;
x11.13 <= y13;
x11.14 <= y14;
x11.15 <= y15;
x11.16 <= y16;
x11.17 <= y17;
x11.18 <= y18;
x11.19 <= y19;
x11.20 <= y20;
x11.21 <= y21;
x11.22 <= y22;
x11.23 <= y23;
x11.24 <= y24;
x12.0 <= y0;
x12.1 <= y1;
x12.2 <= y2;
x12.3 <= y3;
x12.4 <= y4;
x12.5 <= y5;
x12.6 <= y6;
x12.7 <= y7;
x12.8 <= y8;
x12.9 <= y9;
x12.10 <= y10;
x12.11 <= y11;
x12.12 <= y12;
x12.13 <= y13;
x12.14 <= y14;
x12.15 <= y15;
x12.16 <= y16;
x12.17 <= y17;
x12.18 <= y18;
x12.19 <= y19;
x12.20 <= y20;
x12.21 <= y21;
x12.22 <= y22;
x12.23 <= y23;
x12.24 <= y24;
x13.0 <= y0;
x13.1 <= y1;
x13.2 <= y2;
x13.3 <= y3;
x13.4 <= y4;
x13.5 <= y5;
x13.6 <= y6;
x13.7 <= y7;
x13.8 <= y8;
x13.9 <= y9;
x13.10 <= y10;
x13.11 <= y11;
x13.12 <= y12;
x13.13 <= y13;
x13.14 <= y14;
x13.15 <= y15;
x13.16 <= y16;
x13.17 <= y17;
x13.18 <= y18;
x13.19 <= y19;
x13.20 <= y20;
x13.21 <= y21;
x13.22 <= y22;
x13.23 <= y23;
x13.24 <= y24;
x14.0 <= y0;
x14.1 <= y1;
x14.2 <= y2;
x14.3 <= y3;
x14.4 <= y4;
x14.5 <= y5;
x14.6 <= y6;
x14.7 <= y7;
x14.8 <= y8;
x14.9 <= y9;
x14.10 <= y10;
x14.11 <= y11;
x14.12 <= y12;
x14.13 <= y13;
x14.14 <= y14;
x14.15 <= y15;
x14.16 <= y16;
x14.17 <= y17;
x14.18 <= y18;
x14.19 <= y19;
x14.20 <= y20;
x14.21 <= y21;
x14.22 <= y22;
x14.23 <= y23;
x14.24 <= y24;
x15.0 <= y0;
x15.1 <= y1;
x15.2 <= y2;
x15.3 <= y3;
x15.4 <= y4;
x15.5 <= y5;
x15.6 <= y6;
x15.7 <= y7;
x15.8 <= y8;
x15.9 <= y9;
x15.10 <= y10;
x15.11 <= y11;
x15.12 <= y12;
x15.13 <= y13;
x15.14 <= y14;
x15.15 <= y15;
x15.16 <= y16;
x15.17 <= y17;
x15.18 <= y18;
x15.19 <= y19;
x15.20 <= y20;
x15.21 <= y21;
x15.22 <= y22;
x15.23 <= y23;
x15.24 <= y24;
x16.0 <= y0;
x16.1 <= y1;
x16.2 <= y2;
x16.3 <= y3;
x16.4 <= y4;
x16.5 <= y5;
x16.6 <= y6;
x16.7 <= y7;
x16.8 <= y8;
x16.9 <= y9;
x16.10 <= y10;
x16.11 <= y11;
x16.12 <= y12;
x16.13 <= y13;
x16.14 <= y14;
x16.15 <= y15;
x16.16 <= y16;
x16.17 <= y17;
x16.18 <= y18;
x16.19 <= y19;
x16.20 <= y20;
x16.21 <= y21;
x16.22 <= y22;
x16.23 <= y23;
x16.24 <= y24;
x17.0 <= y0;
x17.1 <= y1;
x17.2 <= y2;
x17.3 <= y3;
x17.4 <= y4;
x17.5 <= y5;
x17.6 <= y6;
x17.7 <= y7;
x17.8 <= y8;
x17.9 <= y9;
x17.10 <= y10;
x17.11 <= y11;
x17.12 <= y12;
x17.13 <= y13;
x17.14 <= y14;
x17.15 <= y15;
x17.16 <= y16;
x17.17 <= y17;
x17.18 <= y18;
x17.19 <= y19;
x17.20 <= y20;
x17.21 <= y21;
x17.22 <= y22;
x17.23 <= y23;
x17.24 <= y24;
x18.0 <= y0;
x18.1 <= y1;
x18.2 <= y2;
x18.3 <= y3;
x18.4 <= y4;
x18.5 <= y5;
x18.6 <= y6;
x18.7 <= y7;
x18.8 <= y8;
x18.9 <= y9;
x18.10 <= y10;
x18.11 <= y11;
x18.12 <= y12;
x18.13 <= y13;
x18.14 <= y14;
x18.15 <= y15;
x18.16 <= y16;
x18.17 <= y17;
x18.18 <= y18;
x18.19 <= y19;
x18.20 <= y20;
x18.21 <= y21;
x18.22 <= y22;
x18.23 <= y23;
x18.24 <= y24;
x19.0 <= y0;
x19.1 <= y1;
x19.2 <= y2;
x19.3 <= y3;
x19.4 <= y4;
x19.5 <= y5;
x19.6 <= y6;
x19.7 <= y7;
x19.8 <= y8;
x19.9 <= y9;
x19.10 <= y10;
x19.11 <= y11;
x19.12 <= y12;
x19.13 <= y13;
x19.14 <= y14;
x19.15 <= y15;
x19.16 <= y16;
x19.17 <= y17;
x19.18 <= y18;
x19.19 <= y19;
x19.20 <= y20;
x19.21 <= y21;
x19.22 <= y22;
x19.23 <= y23;
x19.24 <= y24;
x20.0 <= y0;
x20.1 <= y1;
x20.2 <= y2;
x20.3 <= y3;
x20.4 <= y4;
x20.5 <= y5;
x20.6 <= y6;
x20.7 <= y7;
x20.8 <= y8;
x20.9 <= y9;
x20.10 <= y10;
x20.11 <= y11;
x20.12 <= y12;
x20.13 <= y13;
x20.14 <= y14;
x20.15 <= y15;
x20.16 <= y16;
x20.17 <= y17;
x20.18 <= y18;
x20.19 <= y19;
x20.20 <= y20;
x20.21 <= y21;
x20.22 <= y22;
x20.23 <= y23;
x20.24 <= y24;
x21.0 <= y0;
x21.1 <= y1;
x21.2 <= y2;
x21.3 <= y3;
x21.4 <= y4;
x21.5 <= y5;
x21.6 <= y6;
x21.7 <= y7;
x21.8 <= y8;
x21.9 <= y9;
x21.10 <= y10;
x21.11 <= y11;
x21.12 <= y12;
x21.13 <= y13;
x21.14 <= y14;
x21.15 <= y15;
x21.16 <= y16;
x21.17 <= y17;
x21.18 <= y18;
x21.19 <= y19;
x21.20 <= y20;
x21.21 <= y21;
x21.22 <= y22;
x21.23 <= y23;
x21.24 <= y24;
x22.0 <= y0;
x22.1 <= y1;
x22.2 <= y2;
x22.3 <= y3;
x22.4 <= y4;
x22.5 <= y5;
x22.6 <= y6;
x22.7 <= y7;
x22.8 <= y8;
x22.9 <= y9;
x22.10 <= y10;
x22.11 <= y11;
x22.12 <= y12;
x22.13 <= y13;
x22.14 <= y14;
x22.15 <= y15;
x22.16 <= y16;
x22.17 <= y17;
x22.18 <= y18;
x22.19 <= y19;
x22.20 <= y20;
x22.21 <= y21;
x22.22 <= y22;
x22.23 <= y23;
x22.24 <= y24;
x23.0 <= y0;
x23.1 <= y1;
x23.2 <= y2;
x23.3 <= y3;
x23.4 <= y4;
x23.5 <= y5;
x23.6 <= y6;
x23.7 <= y7;
x23.8 <= y8;
x23.9 <= y9;
x23.10 <= y10;
x23.11 <= y11;
x23.12 <= y12;
x23.13 <= y13;
x23.14 <= y14;
x23.15 <= y15;
x23.16 <= y16;
x23.17 <= y17;
x23.18 <= y18;
x23.19 <= y19;
x23.20 <= y20;
x23.21 <= y21;
x23.22 <= y22;
x23.23 <= y23;
x23.24 <= y24;
x24.0 <= y0;
x24.1 <= y1;
x24.2 <= y2;
x24.3 <= y3;
x24.4 <= y4;
x24.5 <= y5;
x24.6 <= y6;
x24.7 <= y7;
x24.8 <= y8;
x24.9 <= y9;
x24.10 <= y10;
x24.11 <= y11;
x24.12 <= y12;
x24.13 <= y13;
x24.14 <= y14;
x24.15 <= y15;
x24.16 <= y16;
x24.17 <= y17;
x24.18 <= y18;
x24.19 <= y19;
x24.20 <= y20;
x24.21 <= y21;
x24.22 <= y22;
x24.23 <= y23;
x24.24 <= y24;
 z +0x0.0 -27x0.1 -47x0.2 -24x0.3 -65x0.4 -56x0.5 -95x0.6 -67x0.7 -29x0.8 -62x0.9 -86x0.10 -59x0.11 -82x0.12 -78x0.13 -70x0.14 -35x0.15 -56x0.16 -70x0.17 -37x0.18 -69x0.19 -60x0.20 -60x0.21 -19x0.22 -75x0.23 -71x0.24  >= 0;
 z -27x1.0 +0x1.1 -26x1.2 -28x1.3 -50x1.4 -37x1.5 -76x1.6 -49x1.7 -44x1.8 -64x1.9 -59x1.10 -34x1.11 -57x1.12 -58x1.13 -53x1.14 -26x1.15 -39x1.16 -74x1.17 -64x1.18 -49x1.19 -43x1.20 -51x1.21 -46x1.22 -60x1.23 -72x1.24  >= 0;
 z -47x2.0 -26x2.1 +0x2.2 -40x2.3 -24x2.4 -45x2.5 -54x2.6 -56x2.7 -18x2.8 -40x2.9 -65x2.10 -49x2.11 -44x2.12 -32x2.13 -27x2.14 -52x2.15 -13x2.16 -52x2.17 -50x2.18 -23x2.19 -61x2.20 -37x2.21 -66x2.22 -34x2.23 -55x2.24  >= 0;
 z -24x3.0 -28x3.1 -40x3.2 +0x3.3 -41x3.4 -65x3.5 -71x3.6 -77x3.7 -53x3.8 -48x3.9 -74x3.10 -62x3.11 -63x3.12 -71x3.13 -46x3.14 -44x3.15 -32x3.16 -46x3.17 -61x3.18 -63x3.19 -71x3.20 -56x3.21 -43x3.22 -51x3.23 -95x3.24  >= 0;
 z -65x4.0 -50x4.1 -24x4.2 -41x4.3 +0x4.4 -52x4.5 -40x4.6 -68x4.7 -42x4.8 -21x4.9 -57x4.10 -72x4.11 -49x4.12 -30x4.13 -51x4.14 -76x4.15 -37x4.16 -76x4.17 -71x4.18 -47x4.19 -37x4.20 -61x4.21 -48x4.22 -10x4.23 -58x4.24  >= 0;
 z -56x5.0 -37x5.1 -45x5.2 -65x5.3 -52x5.4 +0x5.5 -44x5.6 -30x5.7 -27x5.8 -73x5.9 -61x5.10 -58x5.11 -73x5.12 -22x5.13 -72x5.14 -63x5.15 -58x5.16 -73x5.17 -93x5.18 -44x5.19 -80x5.20 -82x5.21 -75x5.22 -42x5.23 -69x5.24  >= 0;
 z -95x6.0 -76x6.1 -54x6.2 -71x6.3 -40x6.4 -44x6.5 +0x6.6 -45x6.7 -71x6.8 -61x6.9 -17x6.10 -60x6.11 -37x6.12 -22x6.13 -54x6.14 -102x6.15 -67x6.16 -45x6.17 -103x6.18 -73x6.19 -77x6.20 -91x6.21 -87x6.22 -42x6.23 -90x6.24  >= 0;
 z -67x7.0 -49x7.1 -56x7.2 -77x7.3 -68x7.4 -30x7.5 -45x7.6 +0x7.7 -38x7.8 -83x7.9 -62x7.10 -69x7.11 -65x7.12 -52x7.13 -48x7.14 -75x7.15 -56x7.16 -75x7.17 -99x7.18 -74x7.19 -83x7.20 -80x7.21 -86x7.22 -58x7.23 -55x7.24  >= 0;
 z -29x8.0 -44x8.1 -18x8.2 -53x8.3 -42x8.4 -27x8.5 -71x8.6 -38x8.7 +0x8.8 -58x8.9 -83x8.10 -31x8.11 -54x8.12 -49x8.13 -45x8.14 -64x8.15 -31x8.16 -70x8.17 -66x8.18 -41x8.19 -79x8.20 -55x8.21 -48x8.22 -52x8.23 -42x8.24  >= 0;
 z -62x9.0 -64x9.1 -40x9.2 -48x9.3 -21x9.4 -73x9.5 -61x9.6 -83x9.7 -58x9.8 +0x9.9 -46x9.10 -61x9.11 -58x9.12 -51x9.13 -41x9.14 -72x9.15 -27x9.16 -74x9.17 -70x9.18 -51x9.19 -58x9.20 -51x9.21 -69x9.22 -31x9.23 -79x9.24  >= 0;
 z -86x10.0 -59x10.1 -65x10.2 -74x10.3 -57x10.4 -61x10.5 -17x10.6 -62x10.7 -83x10.8 -46x10.9 +0x10.10 -54x10.11 -31x10.12 -39x10.13 -48x10.14 -85x10.15 -52x10.16 -28x10.17 -95x10.18 -57x10.19 -94x10.20 -76x10.21 -93x10.22 -59x10.23 -89x10.24  >= 0;
 z -59x11.0 -34x11.1 -49x11.2 -62x11.3 -72x11.4 -58x11.5 -60x11.6 -69x11.7 -31x11.8 -61x11.9 -54x11.10 +0x11.11 -23x11.12 -74x11.13 -35x11.14 -60x11.15 -41x11.16 -55x11.17 -51x11.18 -59x11.19 -77x11.20 -65x11.21 -40x11.22 -82x11.23 -73x11.24  >= 0;
 z -82x12.0 -57x12.1 -44x12.2 -63x12.3 -49x12.4 -73x12.5 -37x12.6 -65x12.7 -54x12.8 -58x12.9 -31x12.10 -23x12.11 +0x12.12 -51x12.13 -17x12.14 -80x12.15 -31x12.16 -59x12.17 -74x12.18 -36x12.19 -86x12.20 -55x12.21 -63x12.22 -59x12.23 -68x12.24  >= 0;
 z -78x13.0 -58x13.1 -32x13.2 -71x13.3 -30x13.4 -22x13.5 -22x13.6 -52x13.7 -49x13.8 -51x13.9 -39x13.10 -74x13.11 -51x13.12 +0x13.13 -59x13.14 -84x13.15 -45x13.16 -67x13.17 -81x13.18 -55x13.19 -67x13.20 -69x13.21 -65x13.22 -20x13.23 -68x13.24  >= 0;
 z -70x14.0 -53x14.1 -27x14.2 -46x14.3 -51x14.4 -72x14.5 -54x14.6 -48x14.7 -45x14.8 -41x14.9 -48x14.10 -35x14.11 -17x14.12 -59x14.13 +0x14.14 -63x14.15 -14x14.16 -67x14.17 -57x14.18 -38x14.19 -86x14.20 -38x14.21 -75x14.22 -61x14.23 -51x14.24  >= 0;
 z -35x15.0 -26x15.1 -52x15.2 -44x15.3 -76x15.4 -63x15.5 -102x15.6 -75x15.7 -64x15.8 -72x15.9 -85x15.10 -60x15.11 -80x15.12 -84x15.13 -63x15.14 +0x15.15 -49x15.16 -90x15.17 -72x15.18 -75x15.19 -69x15.20 -25x15.21 -54x15.22 -77x15.23 -86x15.24  >= 0;
 z -56x16.0 -39x16.1 -13x16.2 -32x16.3 -37x16.4 -58x16.5 -67x16.6 -56x16.7 -31x16.8 -27x16.9 -52x16.10 -41x16.11 -31x16.12 -45x16.13 -14x16.14 -49x16.15 +0x16.16 -60x16.17 -43x16.18 -36x16.19 -72x16.20 -24x16.21 -75x16.22 -47x16.23 -65x16.24  >= 0;
 z -70x17.0 -74x17.1 -52x17.2 -46x17.3 -76x17.4 -73x17.5 -45x17.6 -75x17.7 -70x17.8 -74x17.9 -28x17.10 -55x17.11 -59x17.12 -67x17.13 -67x17.14 -90x17.15 -60x17.16 +0x17.17 -102x17.18 -29x17.19 -113x17.20 -84x17.21 -65x17.22 -86x17.23 -61x17.24  >= 0;
 z -37x18.0 -64x18.1 -50x18.2 -61x18.3 -71x18.4 -93x18.5 -103x18.6 -99x18.7 -66x18.8 -70x18.9 -95x18.10 -51x18.11 -74x18.12 -81x18.13 -57x18.14 -72x18.15 -43x18.16 -102x18.17 +0x18.18 -73x18.19 -97x18.20 -67x18.21 -56x18.22 -61x18.23 -105x18.24  >= 0;
 z -69x19.0 -49x19.1 -23x19.2 -63x19.3 -47x19.4 -44x19.5 -73x19.6 -74x19.7 -41x19.8 -51x19.9 -57x19.10 -59x19.11 -36x19.12 -55x19.13 -38x19.14 -75x19.15 -36x19.16 -29x19.17 -73x19.18 +0x19.19 -84x19.20 -60x19.21 -88x19.22 -57x19.23 -32x19.24  >= 0;
 z -60x20.0 -43x20.1 -61x20.2 -71x20.3 -37x20.4 -80x20.5 -77x20.6 -83x20.7 -79x20.8 -58x20.9 -94x20.10 -77x20.11 -86x20.12 -67x20.13 -86x20.14 -69x20.15 -72x20.16 -113x20.17 -97x20.18 -84x20.19 +0x20.20 -94x20.21 -71x20.22 -47x20.23 -95x20.24  >= 0;
 z -60x21.0 -51x21.1 -37x21.2 -56x21.3 -61x21.4 -82x21.5 -91x21.6 -80x21.7 -55x21.8 -51x21.9 -76x21.10 -65x21.11 -55x21.12 -69x21.13 -38x21.14 -25x21.15 -24x21.16 -84x21.17 -67x21.18 -60x21.19 -94x21.20 +0x21.21 -69x21.22 -71x21.23 -61x21.24  >= 0;
 z -19x22.0 -46x22.1 -66x22.2 -43x22.3 -48x22.4 -75x22.5 -87x22.6 -86x22.7 -48x22.8 -69x22.9 -93x22.10 -40x22.11 -63x22.12 -65x22.13 -75x22.14 -54x22.15 -75x22.16 -65x22.17 -56x22.18 -88x22.19 -71x22.20 -69x22.21 +0x22.22 -58x22.23 -90x22.24  >= 0;
 z -75x23.0 -60x23.1 -34x23.2 -51x23.3 -10x23.4 -42x23.5 -42x23.6 -58x23.7 -52x23.8 -31x23.9 -59x23.10 -82x23.11 -59x23.12 -20x23.13 -61x23.14 -77x23.15 -47x23.16 -86x23.17 -61x23.18 -57x23.19 -47x23.20 -71x23.21 -58x23.22 +0x23.23 -48x23.24  >= 0;
 z -71x24.0 -72x24.1 -55x24.2 -95x24.3 -58x24.4 -69x24.5 -90x24.6 -55x24.7 -42x24.8 -79x24.9 -89x24.10 -73x24.11 -68x24.12 -68x24.13 -51x24.14 -86x24.15 -65x24.16 -61x24.17 -105x24.18 -32x24.19 -95x24.20 -61x24.21 -90x24.22 -48x24.23 +0x24.24  >= 0;
bin y0;
bin x0.0;
bin x0.1;
bin x0.2;
bin x0.3;
bin x0.4;
bin x0.5;
bin x0.6;
bin x0.7;
bin x0.8;
bin x0.9;
bin x0.10;
bin x0.11;
bin x0.12;
bin x0.13;
bin x0.14;
bin x0.15;
bin x0.16;
bin x0.17;
bin x0.18;
bin x0.19;
bin x0.20;
bin x0.21;
bin x0.22;
bin x0.23;
bin x0.24;
bin y1;
bin x1.0;
bin x1.1;
bin x1.2;
bin x1.3;
bin x1.4;
bin x1.5;
bin x1.6;
bin x1.7;
bin x1.8;
bin x1.9;
bin x1.10;
bin x1.11;
bin x1.12;
bin x1.13;
bin x1.14;
bin x1.15;
bin x1.16;
bin x1.17;
bin x1.18;
bin x1.19;
bin x1.20;
bin x1.21;
bin x1.22;
bin x1.23;
bin x1.24;
bin y2;
bin x2.0;
bin x2.1;
bin x2.2;
bin x2.3;
bin x2.4;
bin x2.5;
bin x2.6;
bin x2.7;
bin x2.8;
bin x2.9;
bin x2.10;
bin x2.11;
bin x2.12;
bin x2.13;
bin x2.14;
bin x2.15;
bin x2.16;
bin x2.17;
bin x2.18;
bin x2.19;
bin x2.20;
bin x2.21;
bin x2.22;
bin x2.23;
bin x2.24;
bin y3;
bin x3.0;
bin x3.1;
bin x3.2;
bin x3.3;
bin x3.4;
bin x3.5;
bin x3.6;
bin x3.7;
bin x3.8;
bin x3.9;
bin x3.10;
bin x3.11;
bin x3.12;
bin x3.13;
bin x3.14;
bin x3.15;
bin x3.16;
bin x3.17;
bin x3.18;
bin x3.19;
bin x3.20;
bin x3.21;
bin x3.22;
bin x3.23;
bin x3.24;
bin y4;
bin x4.0;
bin x4.1;
bin x4.2;
bin x4.3;
bin x4.4;
bin x4.5;
bin x4.6;
bin x4.7;
bin x4.8;
bin x4.9;
bin x4.10;
bin x4.11;
bin x4.12;
bin x4.13;
bin x4.14;
bin x4.15;
bin x4.16;
bin x4.17;
bin x4.18;
bin x4.19;
bin x4.20;
bin x4.21;
bin x4.22;
bin x4.23;
bin x4.24;
bin y5;
bin x5.0;
bin x5.1;
bin x5.2;
bin x5.3;
bin x5.4;
bin x5.5;
bin x5.6;
bin x5.7;
bin x5.8;
bin x5.9;
bin x5.10;
bin x5.11;
bin x5.12;
bin x5.13;
bin x5.14;
bin x5.15;
bin x5.16;
bin x5.17;
bin x5.18;
bin x5.19;
bin x5.20;
bin x5.21;
bin x5.22;
bin x5.23;
bin x5.24;
bin y6;
bin x6.0;
bin x6.1;
bin x6.2;
bin x6.3;
bin x6.4;
bin x6.5;
bin x6.6;
bin x6.7;
bin x6.8;
bin x6.9;
bin x6.10;
bin x6.11;
bin x6.12;
bin x6.13;
bin x6.14;
bin x6.15;
bin x6.16;
bin x6.17;
bin x6.18;
bin x6.19;
bin x6.20;
bin x6.21;
bin x6.22;
bin x6.23;
bin x6.24;
bin y7;
bin x7.0;
bin x7.1;
bin x7.2;
bin x7.3;
bin x7.4;
bin x7.5;
bin x7.6;
bin x7.7;
bin x7.8;
bin x7.9;
bin x7.10;
bin x7.11;
bin x7.12;
bin x7.13;
bin x7.14;
bin x7.15;
bin x7.16;
bin x7.17;
bin x7.18;
bin x7.19;
bin x7.20;
bin x7.21;
bin x7.22;
bin x7.23;
bin x7.24;
bin y8;
bin x8.0;
bin x8.1;
bin x8.2;
bin x8.3;
bin x8.4;
bin x8.5;
bin x8.6;
bin x8.7;
bin x8.8;
bin x8.9;
bin x8.10;
bin x8.11;
bin x8.12;
bin x8.13;
bin x8.14;
bin x8.15;
bin x8.16;
bin x8.17;
bin x8.18;
bin x8.19;
bin x8.20;
bin x8.21;
bin x8.22;
bin x8.23;
bin x8.24;
bin y9;
bin x9.0;
bin x9.1;
bin x9.2;
bin x9.3;
bin x9.4;
bin x9.5;
bin x9.6;
bin x9.7;
bin x9.8;
bin x9.9;
bin x9.10;
bin x9.11;
bin x9.12;
bin x9.13;
bin x9.14;
bin x9.15;
bin x9.16;
bin x9.17;
bin x9.18;
bin x9.19;
bin x9.20;
bin x9.21;
bin x9.22;
bin x9.23;
bin x9.24;
bin y10;
bin x10.0;
bin x10.1;
bin x10.2;
bin x10.3;
bin x10.4;
bin x10.5;
bin x10.6;
bin x10.7;
bin x10.8;
bin x10.9;
bin x10.10;
bin x10.11;
bin x10.12;
bin x10.13;
bin x10.14;
bin x10.15;
bin x10.16;
bin x10.17;
bin x10.18;
bin x10.19;
bin x10.20;
bin x10.21;
bin x10.22;
bin x10.23;
bin x10.24;
bin y11;
bin x11.0;
bin x11.1;
bin x11.2;
bin x11.3;
bin x11.4;
bin x11.5;
bin x11.6;
bin x11.7;
bin x11.8;
bin x11.9;
bin x11.10;
bin x11.11;
bin x11.12;
bin x11.13;
bin x11.14;
bin x11.15;
bin x11.16;
bin x11.17;
bin x11.18;
bin x11.19;
bin x11.20;
bin x11.21;
bin x11.22;
bin x11.23;
bin x11.24;
bin y12;
bin x12.0;
bin x12.1;
bin x12.2;
bin x12.3;
bin x12.4;
bin x12.5;
bin x12.6;
bin x12.7;
bin x12.8;
bin x12.9;
bin x12.10;
bin x12.11;
bin x12.12;
bin x12.13;
bin x12.14;
bin x12.15;
bin x12.16;
bin x12.17;
bin x12.18;
bin x12.19;
bin x12.20;
bin x12.21;
bin x12.22;
bin x12.23;
bin x12.24;
bin y13;
bin x13.0;
bin x13.1;
bin x13.2;
bin x13.3;
bin x13.4;
bin x13.5;
bin x13.6;
bin x13.7;
bin x13.8;
bin x13.9;
bin x13.10;
bin x13.11;
bin x13.12;
bin x13.13;
bin x13.14;
bin x13.15;
bin x13.16;
bin x13.17;
bin x13.18;
bin x13.19;
bin x13.20;
bin x13.21;
bin x13.22;
bin x13.23;
bin x13.24;
bin y14;
bin x14.0;
bin x14.1;
bin x14.2;
bin x14.3;
bin x14.4;
bin x14.5;
bin x14.6;
bin x14.7;
bin x14.8;
bin x14.9;
bin x14.10;
bin x14.11;
bin x14.12;
bin x14.13;
bin x14.14;
bin x14.15;
bin x14.16;
bin x14.17;
bin x14.18;
bin x14.19;
bin x14.20;
bin x14.21;
bin x14.22;
bin x14.23;
bin x14.24;
bin y15;
bin x15.0;
bin x15.1;
bin x15.2;
bin x15.3;
bin x15.4;
bin x15.5;
bin x15.6;
bin x15.7;
bin x15.8;
bin x15.9;
bin x15.10;
bin x15.11;
bin x15.12;
bin x15.13;
bin x15.14;
bin x15.15;
bin x15.16;
bin x15.17;
bin x15.18;
bin x15.19;
bin x15.20;
bin x15.21;
bin x15.22;
bin x15.23;
bin x15.24;
bin y16;
bin x16.0;
bin x16.1;
bin x16.2;
bin x16.3;
bin x16.4;
bin x16.5;
bin x16.6;
bin x16.7;
bin x16.8;
bin x16.9;
bin x16.10;
bin x16.11;
bin x16.12;
bin x16.13;
bin x16.14;
bin x16.15;
bin x16.16;
bin x16.17;
bin x16.18;
bin x16.19;
bin x16.20;
bin x16.21;
bin x16.22;
bin x16.23;
bin x16.24;
bin y17;
bin x17.0;
bin x17.1;
bin x17.2;
bin x17.3;
bin x17.4;
bin x17.5;
bin x17.6;
bin x17.7;
bin x17.8;
bin x17.9;
bin x17.10;
bin x17.11;
bin x17.12;
bin x17.13;
bin x17.14;
bin x17.15;
bin x17.16;
bin x17.17;
bin x17.18;
bin x17.19;
bin x17.20;
bin x17.21;
bin x17.22;
bin x17.23;
bin x17.24;
bin y18;
bin x18.0;
bin x18.1;
bin x18.2;
bin x18.3;
bin x18.4;
bin x18.5;
bin x18.6;
bin x18.7;
bin x18.8;
bin x18.9;
bin x18.10;
bin x18.11;
bin x18.12;
bin x18.13;
bin x18.14;
bin x18.15;
bin x18.16;
bin x18.17;
bin x18.18;
bin x18.19;
bin x18.20;
bin x18.21;
bin x18.22;
bin x18.23;
bin x18.24;
bin y19;
bin x19.0;
bin x19.1;
bin x19.2;
bin x19.3;
bin x19.4;
bin x19.5;
bin x19.6;
bin x19.7;
bin x19.8;
bin x19.9;
bin x19.10;
bin x19.11;
bin x19.12;
bin x19.13;
bin x19.14;
bin x19.15;
bin x19.16;
bin x19.17;
bin x19.18;
bin x19.19;
bin x19.20;
bin x19.21;
bin x19.22;
bin x19.23;
bin x19.24;
bin y20;
bin x20.0;
bin x20.1;
bin x20.2;
bin x20.3;
bin x20.4;
bin x20.5;
bin x20.6;
bin x20.7;
bin x20.8;
bin x20.9;
bin x20.10;
bin x20.11;
bin x20.12;
bin x20.13;
bin x20.14;
bin x20.15;
bin x20.16;
bin x20.17;
bin x20.18;
bin x20.19;
bin x20.20;
bin x20.21;
bin x20.22;
bin x20.23;
bin x20.24;
bin y21;
bin x21.0;
bin x21.1;
bin x21.2;
bin x21.3;
bin x21.4;
bin x21.5;
bin x21.6;
bin x21.7;
bin x21.8;
bin x21.9;
bin x21.10;
bin x21.11;
bin x21.12;
bin x21.13;
bin x21.14;
bin x21.15;
bin x21.16;
bin x21.17;
bin x21.18;
bin x21.19;
bin x21.20;
bin x21.21;
bin x21.22;
bin x21.23;
bin x21.24;
bin y22;
bin x22.0;
bin x22.1;
bin x22.2;
bin x22.3;
bin x22.4;
bin x22.5;
bin x22.6;
bin x22.7;
bin x22.8;
bin x22.9;
bin x22.10;
bin x22.11;
bin x22.12;
bin x22.13;
bin x22.14;
bin x22.15;
bin x22.16;
bin x22.17;
bin x22.18;
bin x22.19;
bin x22.20;
bin x22.21;
bin x22.22;
bin x22.23;
bin x22.24;
bin y23;
bin x23.0;
bin x23.1;
bin x23.2;
bin x23.3;
bin x23.4;
bin x23.5;
bin x23.6;
bin x23.7;
bin x23.8;
bin x23.9;
bin x23.10;
bin x23.11;
bin x23.12;
bin x23.13;
bin x23.14;
bin x23.15;
bin x23.16;
bin x23.17;
bin x23.18;
bin x23.19;
bin x23.20;
bin x23.21;
bin x23.22;
bin x23.23;
bin x23.24;
bin y24;
bin x24.0;
bin x24.1;
bin x24.2;
bin x24.3;
bin x24.4;
bin x24.5;
bin x24.6;
bin x24.7;
bin x24.8;
bin x24.9;
bin x24.10;
bin x24.11;
bin x24.12;
bin x24.13;
bin x24.14;
bin x24.15;
bin x24.16;
bin x24.17;
bin x24.18;
bin x24.19;
bin x24.20;
bin x24.21;
bin x24.22;
bin x24.23;
bin x24.24;
