Output/Exact/Random_025_04_3.lp.out
CPU Time for Parsing input: 0.002526s (0.002526s total since program start)
CPU Time for solving: 0.563918s (0.566444s total since program start)

Value of objective function: 52.00000000
